Optimize a model with 2501 rows, 2600 columns and 16758 nonzeros
Model has 1 quadratic constraint
Coefficient statistics:
  Matrix range    [1e+00, 5e+01]
  Objective range [1e+02, 7e+02]
  Bounds range    [1e+00, 5e+01]
  RHS range       [1e+00, 5e+01]
Presolve removed 0 rows and 52 columns
Presolve time: 0.06s
Presolved: 4903 rows, 4949 columns, 26362 nonzeros
Variable types: 0 continuous, 4949 integer (4900 binary)

Root relaxation: objective 2.020000e+02, 49 iterations, 0.01 seconds

    Nodes    |    Current Node    |     Objective Bounds      |     Work
 Expl Unexpl |  Obj  Depth IntInf | Incumbent    BestBd   Gap | It/Node Time

     0     0  202.00000    0   26          -  202.00000      -     -    0s
     0     0  202.00000    0   26          -  202.00000      -     -    0s
     0     0  202.00000    0   26          -  202.00000      -     -    0s
     0     0  202.00000    0   27          -  202.00000      -     -    0s
     0     0  202.00000    0   26          -  202.00000      -     -    0s
     0     0  202.00000    0   26          -  202.00000      -     -    0s
     0     0  202.00000    0   27          -  202.00000      -     -    0s
     0     0  202.00000    0   27          -  202.00000      -     -    0s
H    0     0                    2382.0000000  202.00000  91.5%     -    1s
     0     2  202.00000    0   27 2382.00000  202.00000  91.5%     -    1s
   794   796  202.00000  794   28 2382.00000  202.00000  91.5%   1.5    5s
H  972   972                    2252.0000000  202.00000  91.0%   1.4    5s
  1544  1546  202.00000 1544   48 2252.00000  202.00000  91.0%   1.3   10s
  2290  2292  888.59396 2287   78 2252.00000  303.00000  86.5%   2.8   15s
  3207  2473 2192.78285   33   20 2252.00000 2145.41236  4.73%  11.0   20s
* 4151  2266              80    2234.0000000 2157.58261  3.42%  16.2   23s
  4396  2229 2193.14451   38    4 2234.00000 2160.50035  3.29%  17.5   25s
* 4528  2084              40    2233.0000000 2161.51605  3.20%  18.2   25s
* 5397  1203              42    2182.0000000 2168.18234  0.63%  20.9   28s

Cutting planes:
  Learned: 9

Explored 5658 nodes (120774 simplex iterations) in 29.70 seconds
Thread count was 1 (of 4 available processors)

Optimal solution found (tolerance 1.00e-04)
Best objective 2.182000000000e+03, best bound 2.182000000000e+03, gap 0.0%
2182
(1,0) (0,5) (23,1) (2,10) (14,2) (15,4) (4,23) (5,13) (10,6) (6,21) (20,9) (9,22) (11,15) (18,11) (13,20) (22,14) (48,18) (21,48) 
